SDVRP instances/custom_instances/p10_25_split0.vrp
NAME:p10_25_split
BEST_KNOWN: 0
COMMENT: 0
DIMENSION: 901
CAPACITY: 200
EDGE_WEIGHT_FORMAT: FUNCTION
EDGE_WEIGHT_TYPE: EXACT_2D
NODE_COORD_SECTION
1 0.00000 0.00000
2 -12 9
3 -12 9
4 -12 9
5 -12 9
6 -12 9
7 -33 -37
8 -33 -37
9 -33 -37
10 -33 -37
11 -33 -37
12 -33 -37
13 -49 10
14 -49 10
15 -49 10
16 -26 5
17 -26 5
18 -26 5
19 -26 5
20 -26 5
21 -26 5
22 -50 17
23 -50 17
24 -50 17
25 33 9
26 33 9
27 33 9
28 33 9
29 33 9
30 33 9
31 33 9
32 30 -17
33 30 -17
34 30 -17
35 30 -17
36 30 -17
37 10 -39
38 10 -39
39 10 -39
40 10 -39
41 10 -39
42 -23 -2
43 -23 -2
44 -23 -2
45 -23 -2
46 -23 -2
47 -23 -2
48 34 29
49 34 29
50 34 29
51 34 29
52 34 29
53 34 29
54 -7 40
55 -7 40
56 -7 40
57 6 19
58 6 19
59 6 19
60 6 19
61 6 19
62 16 -40
63 16 -40
64 20 23
65 20 23
66 20 23
67 -31 33
68 -31 33
69 -31 33
70 19 -30
71 19 -30
72 19 -30
73 12 -9
74 12 -9
75 12 -9
76 12 -9
77 12 -9
78 12 -9
79 -27 28
80 -27 28
81 -27 28
82 -27 28
83 -27 28
84 -48 -39
85 -48 -39
86 -48 -39
87 14 45
88 14 45
89 14 45
90 14 45
91 14 45
92 14 45
93 37 5
94 37 5
95 37 5
96 -6 -34
97 -6 -34
98 -6 -34
99 -6 -34
100 -6 -34
101 -6 -34
102 -6 -34
103 21 15
104 21 15
105 21 15
106 21 15
107 -7 40
108 -7 40
109 -7 40
110 -7 40
111 -7 40
112 -7 40
113 -35 -23
114 -35 -23
115 -35 -23
116 -35 -23
117 41 -5
118 41 -5
119 41 -5
120 41 -5
121 41 -5
122 41 -5
123 41 -5
124 -30 -9
125 -30 -9
126 -30 -9
127 27 23
128 27 23
129 27 23
130 27 23
131 27 23
132 26 2
133 26 2
134 26 2
135 26 2
136 -20 -25
137 -20 -25
138 -20 -25
139 -20 -25
140 -20 -25
141 -16 -40
142 -16 -40
143 -16 -40
144 -16 -40
145 11 38
146 11 38
147 11 38
148 11 38
149 -5 -44
150 -5 -44
151 -5 -44
152 -5 -44
153 -5 -44
154 -5 -44
155 -32 -48
156 -32 -48
157 -32 -48
158 -32 -48
159 11 35
160 11 35
161 11 35
162 12 2
163 12 2
164 12 2
165 12 2
166 12 2
167 12 2
168 -14 -35
169 -14 -35
170 -14 -35
171 -14 -35
172 -14 -35
173 -14 -35
174 -14 -35
175 -16 -9
176 -16 -9
177 -16 -9
178 11 40
179 11 40
180 11 40
181 11 40
182 11 40
183 11 40
184 11 40
185 15 4
186 15 4
187 15 4
188 15 4
189 15 4
190 15 4
191 22 9
192 22 9
193 -37 40
194 -37 40
195 -37 40
196 -37 40
197 -37 40
198 -37 40
199 -37 40
200 -10 -39
201 -10 -39
202 -10 -39
203 -10 -39
204 -10 -39
205 -10 -39
206 -3 -36
207 -3 -36
208 -3 -36
209 -3 -36
210 3 -23
211 3 -23
212 3 -23
213 3 -23
214 3 -23
215 -12 -35
216 -12 -35
217 -12 -35
218 -12 -35
219 -12 -35
220 -12 -35
221 27 -16
222 27 -16
223 27 -16
224 27 -16
225 -3 50
226 -3 50
227 -3 50
228 -3 50
229 -3 50
230 36 25
231 36 25
232 36 25
233 36 25
234 36 25
235 35 -16
236 35 -16
237 35 -16
238 35 -16
239 35 -16
240 35 -16
241 -22 -42
242 -22 -42
243 -22 -42
244 -22 -42
245 -22 -42
246 27 -46
247 27 -46
248 27 -46
249 27 -46
250 27 -46
251 27 -46
252 15 -37
253 15 -37
254 15 -37
255 15 -37
256 35 43
257 35 43
258 35 43
259 35 43
260 35 43
261 -16 -33
262 -16 -33
263 -16 -33
264 -16 -33
265 -16 -33
266 -16 -33
267 -16 -33
268 -46 -46
269 -46 -46
270 -46 -46
271 -46 -46
272 46 -30
273 46 -30
274 46 -30
275 46 -30
276 24 -24
277 24 -24
278 24 -24
279 24 -24
280 -31 10
281 -31 10
282 -31 10
283 38 -17
284 38 -17
285 38 -17
286 38 -17
287 36 -8
288 36 -8
289 36 -8
290 36 -8
291 36 -8
292 -29 -26
293 -29 -26
294 -29 -26
295 -29 -26
296 -29 -26
297 -29 -26
298 -29 -26
299 39 -39
300 39 -39
301 39 -39
302 39 -39
303 39 -39
304 -1 20
305 -1 20
306 -1 20
307 -1 20
308 -1 20
309 -1 20
310 39 -11
311 39 -11
312 39 -11
313 39 -11
314 39 -11
315 39 -11
316 -3 11
317 -3 11
318 -3 11
319 -3 11
320 19 32
321 19 32
322 19 32
323 19 32
324 19 32
325 19 32
326 -49 34
327 -49 34
328 13 -48
329 13 -48
330 13 -48
331 13 -48
332 13 -48
333 34 38
334 34 38
335 34 38
336 34 38
337 34 38
338 -21 37
339 -21 37
340 -21 37
341 -21 37
342 -21 37
343 -45 -10
344 -45 -10
345 -45 -10
346 -45 -10
347 -45 -10
348 -45 -10
349 -18 -38
350 -18 -38
351 -18 -38
352 -18 -38
353 -37 -48
354 -37 -48
355 -37 -48
356 -37 -48
357 -37 -48
358 23 4
359 23 4
360 23 4
361 23 4
362 23 4
363 23 4
364 -20 -35
365 -20 -35
366 -20 -35
367 -20 -35
368 26 46
369 26 46
370 26 46
371 26 46
372 26 46
373 28 33
374 28 33
375 28 33
376 28 33
377 -18 -9
378 -18 -9
379 -18 -9
380 -25 -10
381 -25 -10
382 -25 -10
383 -25 -10
384 -25 -10
385 -25 -10
386 -28 33
387 -28 33
388 -28 33
389 -28 33
390 -28 33
391 -28 33
392 -7 38
393 -7 38
394 -7 38
395 -7 38
396 -7 38
397 -7 38
398 -7 38
399 -2 -48
400 -2 -48
401 -2 -48
402 -2 -48
403 -10 -7
404 -10 -7
405 -10 -7
406 -10 -7
407 -10 -7
408 -24 -19
409 -24 -19
410 -24 -19
411 49 46
412 49 46
413 49 46
414 49 46
415 -17 -33
416 -17 -33
417 -17 -33
418 -17 -33
419 22 26
420 22 26
421 22 26
422 22 26
423 22 26
424 11 33
425 11 33
426 11 33
427 11 33
428 11 33
429 -22 -48
430 -22 -48
431 -22 -48
432 -22 -48
433 -22 -48
434 -22 -48
435 -22 -48
436 10 47
437 10 47
438 10 47
439 -9 26
440 -9 26
441 -9 26
442 -9 26
443 -42 21
444 -42 21
445 -42 21
446 -42 21
447 -42 21
448 -42 21
449 -15 -47
450 -15 -47
451 -15 -47
452 -36 12
453 -36 12
454 -36 12
455 -36 12
456 -36 12
457 -36 12
458 6 13
459 6 13
460 6 13
461 6 13
462 6 13
463 6 13
464 -12 -30
465 -12 -30
466 -3 -42
467 -3 -42
468 -3 -42
469 -3 -42
470 -13 -10
471 -13 -10
472 -13 -10
473 48 23
474 48 23
475 48 23
476 48 23
477 48 23
478 48 23
479 5 49
480 5 49
481 5 49
482 5 49
483 5 49
484 26 36
485 26 36
486 26 36
487 26 36
488 -23 -7
489 -23 -7
490 -23 -7
491 -23 -7
492 -23 -7
493 -13 -31
494 -13 -31
495 -13 -31
496 10 -2
497 10 -2
498 -23 -39
499 -23 -39
500 -23 -39
501 -23 -39
502 -12 30
503 -12 30
504 -12 30
505 -12 30
506 -46 -20
507 -46 -20
508 36 50
509 36 50
510 36 50
511 42 17
512 42 17
513 42 17
514 31 -29
515 31 -29
516 34 18
517 34 18
518 34 18
519 34 18
520 -28 -26
521 -28 -26
522 -28 -26
523 -28 -26
524 -28 -26
525 -45 37
526 -45 37
527 6 38
528 6 38
529 6 38
530 6 38
531 -25 32
532 -25 32
533 -25 32
534 -25 32
535 -25 32
536 34 44
537 34 44
538 34 44
539 34 44
540 34 44
541 34 44
542 -15 -28
543 -15 -28
544 -15 -28
545 -15 -28
546 -15 -28
547 44 4
548 44 4
549 44 4
550 44 4
551 44 4
552 44 4
553 -24 19
554 -24 19
555 -24 19
556 -24 19
557 -24 19
558 -24 19
559 4 45
560 4 45
561 4 45
562 4 45
563 -29 7
564 -29 7
565 -29 7
566 14 35
567 14 35
568 14 35
569 14 35
570 14 35
571 14 35
572 18 39
573 18 39
574 18 39
575 18 39
576 -45 -21
577 -45 -21
578 -45 -21
579 -45 -21
580 -45 -21
581 -45 -21
582 -3 -11
583 -3 -11
584 -3 -11
585 -3 -11
586 -3 -11
587 -32 -8
588 -32 -8
589 -32 -8
590 -16 -19
591 -16 -19
592 -16 -19
593 -16 -19
594 -16 -19
595 4 18
596 4 18
597 -29 0
598 -29 0
599 -29 0
600 -29 0
601 -29 0
602 27 -39
603 27 -39
604 27 -39
605 -44 32
606 -44 32
607 -44 32
608 -44 32
609 -8 47
610 -8 47
611 -8 47
612 -8 47
613 -8 47
614 -8 47
615 -8 47
616 -8 47
617 -13 49
618 -13 49
619 -14 49
620 -14 49
621 -14 49
622 -14 49
623 -50 -50
624 -50 -50
625 -50 -50
626 -50 -50
627 -50 -50
628 -50 -50
629 -50 -50
630 -8 41
631 -8 41
632 -8 41
633 -8 41
634 13 -20
635 13 -20
636 13 -20
637 13 -20
638 -38 -13
639 -38 -13
640 -38 -13
641 -38 -13
642 -38 -13
643 11 31
644 11 31
645 11 31
646 11 31
647 11 31
648 11 31
649 -35 45
650 -35 45
651 -35 45
652 -35 45
653 39 50
654 39 50
655 39 50
656 39 50
657 39 50
658 39 50
659 -18 8
660 -18 8
661 -18 8
662 -18 8
663 34 17
664 34 17
665 34 17
666 34 17
667 34 17
668 34 17
669 -5 -10
670 -5 -10
671 -5 -10
672 -5 -10
673 -5 -10
674 -5 -10
675 -16 45
676 -16 45
677 -16 45
678 -16 45
679 -16 45
680 18 43
681 18 43
682 18 43
683 18 43
684 18 43
685 18 43
686 18 43
687 18 43
688 -50 -50
689 -50 -50
690 -50 -50
691 43 -35
692 43 -35
693 43 -35
694 43 -35
695 43 -35
696 -14 50
697 -14 50
698 -29 2
699 -29 2
700 -29 2
701 -29 2
702 -29 2
703 13 13
704 13 13
705 31 33
706 31 33
707 31 33
708 -27 20
709 -27 20
710 18 -3
711 18 -3
712 18 -3
713 37 38
714 37 38
715 37 38
716 37 38
717 37 38
718 37 38
719 17 -50
720 17 -50
721 17 -50
722 19 44
723 19 44
724 19 44
725 19 44
726 19 44
727 19 44
728 -41 21
729 -41 21
730 -41 21
731 -41 21
732 -2 25
733 -2 25
734 -2 25
735 -2 25
736 -2 25
737 -33 -34
738 -33 -34
739 -33 -34
740 -33 -34
741 33 48
742 33 48
743 33 48
744 -8 10
745 -8 10
746 -8 10
747 9 21
748 9 21
749 8 15
750 8 15
751 8 15
752 8 15
753 8 15
754 18 -13
755 18 -13
756 18 -13
757 18 -13
758 18 -13
759 18 -13
760 -11 37
761 -11 37
762 -11 37
763 -11 37
764 -11 37
765 -11 37
766 -22 26
767 -22 26
768 -22 26
769 -22 26
770 -22 26
771 -22 26
772 -31 -33
773 -31 -33
774 -31 -33
775 -31 -33
776 -31 -33
777 46 30
778 46 30
779 46 30
780 46 30
781 46 30
782 46 30
783 -37 4
784 -37 4
785 -37 4
786 -37 4
787 -39 0
788 -39 0
789 -39 0
790 9 19
791 9 19
792 9 19
793 9 19
794 38 6
795 38 6
796 38 6
797 38 6
798 38 6
799 7 50
800 7 50
801 7 50
802 7 50
803 7 50
804 23 -16
805 23 -16
806 23 -16
807 23 -16
808 23 -16
809 23 -16
810 23 -16
811 -14 -40
812 -14 -40
813 -14 -40
814 -14 -40
815 -14 -40
816 -14 -40
817 -14 -40
818 -36 -3
819 -36 -3
820 -36 -3
821 6 12
822 6 12
823 -24 -38
824 -24 -38
825 -24 -38
826 -24 -38
827 -33 35
828 -33 35
829 -33 35
830 -33 35
831 -33 35
832 -33 35
833 -33 35
834 45 -28
835 45 -28
836 29 -8
837 29 -8
838 29 -8
839 29 -8
840 29 -8
841 29 -8
842 12 -3
843 12 -3
844 12 -3
845 12 -3
846 12 -3
847 -12 -32
848 -12 -32
849 -12 -32
850 -12 -32
851 36 -4
852 36 -4
853 36 -4
854 36 -4
855 40 -41
856 40 -41
857 40 -41
858 9 -34
859 9 -34
860 9 -34
861 9 -34
862 9 -34
863 44 2
864 44 2
865 44 2
866 44 2
867 44 2
868 44 2
869 -45 -28
870 -45 -28
871 -45 -28
872 29 21
873 29 21
874 29 21
875 29 21
876 29 21
877 -30 3
878 -30 3
879 -30 3
880 38 -8
881 38 -8
882 38 -8
883 23 25
884 23 25
885 23 25
886 -8 -11
887 -8 -11
888 27 14
889 27 14
890 27 14
891 27 14
892 27 14
893 -20 5
894 -20 5
895 -37 9
896 -37 9
897 -37 9
898 -37 9
899 -37 9
900 29 -17
901 29 -17
DEMAND_SECTION
1 0
2 20
3 10
4 2
5 2
6 2
7 40
8 40
9 2
10 2
11 2
12 1
13 40
14 20
15 2
16 40
17 10
18 2
19 2
20 2
21 2
22 40
23 20
24 1
25 40
26 20
27 10
28 2
29 2
30 2
31 1
32 40
33 10
34 2
35 2
36 2
37 40
38 20
39 10
40 2
41 1
42 40
43 20
44 10
45 2
46 2
47 2
48 40
49 40
50 10
51 2
52 2
53 1
54 40
55 20
56 2
57 40
58 40
59 10
60 2
61 2
62 40
63 40
64 40
65 20
66 1
67 20
68 10
69 2
70 40
71 20
72 10
73 40
74 20
75 2
76 2
77 2
78 2
79 40
80 20
81 2
82 2
83 1
84 40
85 40
86 1
87 20
88 10
89 2
90 2
91 2
92 1
93 40
94 20
95 10
96 40
97 20
98 10
99 2
100 2
101 2
102 1
103 40
104 40
105 2
106 2
107 40
108 2
109 2
110 2
111 2
112 1
113 40
114 20
115 10
116 1
117 40
118 20
119 2
120 2
121 2
122 2
123 1
124 40
125 40
126 2
127 40
128 10
129 2
130 2
131 1
132 40
133 40
134 2
135 2
136 40
137 40
138 2
139 2
140 1
141 20
142 10
143 2
144 1
145 40
146 10
147 2
148 2
149 40
150 40
151 10
152 2
153 2
154 2
155 40
156 40
157 10
158 1
159 40
160 2
161 1
162 40
163 40
164 10
165 2
166 2
167 2
168 40
169 40
170 2
171 2
172 2
173 2
174 1
175 40
176 40
177 2
178 40
179 20
180 10
181 2
182 2
183 2
184 2
185 40
186 2
187 2
188 2
189 2
190 1
191 20
192 10
193 40
194 40
195 2
196 2
197 2
198 2
199 1
200 40
201 40
202 10
203 2
204 2
205 1
206 20
207 10
208 2
209 2
210 20
211 2
212 2
213 2
214 2
215 40
216 20
217 10
218 2
219 2
220 2
221 40
222 20
223 2
224 1
225 40
226 20
227 10
228 2
229 1
230 20
231 10
232 2
233 2
234 2
235 40
236 20
237 10
238 2
239 2
240 1
241 20
242 10
243 2
244 2
245 1
246 40
247 40
248 10
249 2
250 2
251 2
252 20
253 2
254 2
255 2
256 40
257 20
258 2
259 2
260 2
261 40
262 40
263 2
264 2
265 2
266 2
267 1
268 40
269 10
270 2
271 1
272 40
273 20
274 2
275 1
276 40
277 20
278 10
279 2
280 40
281 10
282 1
283 40
284 40
285 10
286 2
287 40
288 40
289 10
290 2
291 1
292 40
293 20
294 10
295 2
296 2
297 2
298 1
299 20
300 10
301 2
302 2
303 1
304 40
305 20
306 2
307 2
308 2
309 2
310 40
311 40
312 2
313 2
314 2
315 1
316 40
317 20
318 10
319 2
320 20
321 10
322 2
323 2
324 2
325 2
326 40
327 20
328 20
329 2
330 2
331 2
332 1
333 20
334 2
335 2
336 2
337 1
338 20
339 2
340 2
341 2
342 2
343 40
344 40
345 10
346 2
347 2
348 1
349 40
350 40
351 2
352 1
353 40
354 20
355 2
356 2
357 1
358 40
359 20
360 2
361 2
362 2
363 2
364 40
365 40
366 2
367 2
368 40
369 10
370 2
371 2
372 1
373 40
374 40
375 10
376 2
377 40
378 40
379 2
380 40
381 10
382 2
383 2
384 2
385 1
386 40
387 40
388 2
389 2
390 2
391 2
392 40
393 20
394 10
395 2
396 2
397 2
398 2
399 40
400 40
401 10
402 2
403 20
404 2
405 2
406 2
407 2
408 40
409 10
410 2
411 40
412 2
413 2
414 1
415 40
416 10
417 2
418 1
419 20
420 10
421 2
422 2
423 2
424 40
425 2
426 2
427 2
428 1
429 40
430 20
431 10
432 2
433 2
434 2
435 1
436 40
437 20
438 10
439 40
440 20
441 2
442 2
443 40
444 20
445 10
446 2
447 2
448 1
449 40
450 40
451 1
452 40
453 10
454 2
455 2
456 2
457 2
458 40
459 10
460 2
461 2
462 2
463 2
464 20
465 10
466 40
467 40
468 2
469 2
470 20
471 10
472 1
473 40
474 40
475 10
476 2
477 2
478 2
479 40
480 40
481 10
482 2
483 1
484 40
485 2
486 2
487 2
488 20
489 2
490 2
491 2
492 2
493 40
494 10
495 2
496 40
497 10
498 20
499 10
500 2
501 2
502 40
503 40
504 2
505 1
506 40
507 40
508 40
509 20
510 2
511 20
512 10
513 2
514 40
515 2
516 20
517 2
518 2
519 1
520 20
521 2
522 2
523 2
524 1
525 40
526 20
527 40
528 40
529 10
530 1
531 40
532 40
533 10
534 2
535 2
536 20
537 10
538 2
539 2
540 2
541 1
542 40
543 2
544 2
545 2
546 1
547 20
548 10
549 2
550 2
551 2
552 2
553 40
554 40
555 2
556 2
557 2
558 1
559 40
560 10
561 2
562 2
563 40
564 20
565 1
566 40
567 20
568 10
569 2
570 2
571 1
572 40
573 20
574 10
575 2
576 40
577 20
578 2
579 2
580 2
581 2
582 40
583 2
584 2
585 2
586 2
587 40
588 20
589 2
590 20
591 10
592 2
593 2
594 2
595 40
596 2
597 40
598 10
599 2
600 2
601 1
602 40
603 20
604 2
605 40
606 2
607 2
608 2
609 40
610 40
611 10
612 2
613 2
614 2
615 2
616 1
617 40
618 2
619 40
620 20
621 10
622 2
623 40
624 40
625 2
626 2
627 2
628 2
629 1
630 20
631 10
632 2
633 1
634 20
635 2
636 2
637 2
638 40
639 40
640 10
641 2
642 2
643 40
644 40
645 2
646 2
647 2
648 1
649 40
650 40
651 2
652 2
653 40
654 20
655 10
656 2
657 2
658 1
659 40
660 20
661 2
662 2
663 20
664 10
665 2
666 2
667 2
668 2
669 20
670 2
671 2
672 2
673 2
674 1
675 20
676 2
677 2
678 2
679 1
680 40
681 40
682 10
683 2
684 2
685 2
686 2
687 1
688 40
689 40
690 10
691 40
692 2
693 2
694 2
695 2
696 40
697 40
698 40
699 20
700 10
701 2
702 1
703 40
704 1
705 40
706 40
707 10
708 20
709 10
710 40
711 20
712 1
713 20
714 2
715 2
716 2
717 2
718 1
719 40
720 10
721 2
722 40
723 20
724 2
725 2
726 2
727 2
728 40
729 2
730 2
731 1
732 40
733 40
734 10
735 2
736 2
737 40
738 20
739 10
740 1
741 40
742 40
743 20
744 40
745 40
746 1
747 40
748 40
749 40
750 20
751 10
752 2
753 1
754 40
755 10
756 2
757 2
758 2
759 2
760 40
761 40
762 10
763 2
764 2
765 1
766 40
767 40
768 2
769 2
770 2
771 1
772 40
773 20
774 10
775 2
776 2
777 20
778 2
779 2
780 2
781 2
782 1
783 20
784 10
785 2
786 1
787 20
788 10
789 1
790 40
791 40
792 2
793 2
794 40
795 2
796 2
797 2
798 2
799 40
800 20
801 10
802 2
803 2
804 40
805 20
806 10
807 2
808 2
809 2
810 1
811 40
812 20
813 2
814 2
815 2
816 2
817 1
818 40
819 20
820 1
821 40
822 2
823 40
824 2
825 2
826 2
827 40
828 20
829 2
830 2
831 2
832 2
833 1
834 40
835 1
836 40
837 40
838 2
839 2
840 2
841 2
842 40
843 40
844 10
845 2
846 2
847 40
848 40
849 10
850 2
851 40
852 2
853 2
854 2
855 40
856 10
857 1
858 20
859 10
860 2
861 2
862 2
863 40
864 40
865 2
866 2
867 2
868 2
869 40
870 40
871 10
872 40
873 20
874 2
875 2
876 2
877 40
878 40
879 2
880 40
881 20
882 2
883 40
884 2
885 1
886 20
887 10
888 40
889 40
890 10
891 2
892 1
893 40
894 40
895 40
896 20
897 2
898 2
899 1
900 40
901 10
DEPOT_SECTION
1
-1
EOF