SDVRP instances/custom_instances/p10_25_split0.sol
900 -2 4 1 552 556 557 555 553 554 766 765 -3 5 707 708 78 80 79 532 530 534 531 533 -7 11 6 9 737 736 771 773 775 774 -19 20 563 562 279 281 280 878 877 876 701 700 -24 25 29 28 26 27 30 793 795 797 794 796 94 92 93 359 361 -44 45 43 41 42 46 598 600 596 597 699 697 698 -64 419 373 372 706 704 705 -65 63 336 334 332 333 335 716 713 714 712 715 717 257 255 259 256 258 540 537 538 536 535 484 -66 192 196 198 195 194 193 197 648 649 651 650 767 769 768 770 -74 73 755 757 282 284 285 283 237 236 238 235 234 239 -77 76 75 72 753 711 710 709 163 161 -82 81 67 68 828 831 830 829 827 826 832 387 389 388 385 390 386 339 338 341 340 337 -83 85 84 270 267 353 356 352 354 355 739 738 -98 101 100 95 99 96 97 847 846 492 494 -103 102 888 889 887 190 191 -105 104 872 871 873 875 874 129 126 130 127 128 884 882 883 422 420 418 421 -107 109 617 616 695 696 620 619 621 618 -110 106 53 55 111 54 108 631 629 630 632 391 392 -120 117 122 118 119 121 116 866 864 867 862 865 863 547 549 546 548 550 551 -125 638 640 343 344 345 347 342 346 818 819 817 -133 132 131 134 362 360 358 357 187 186 188 185 184 189 -137 136 519 520 521 522 523 293 294 297 292 296 291 295 407 408 409 406 -146 145 182 183 177 180 181 179 87 90 91 89 86 88 437 436 435 799 561 -153 148 150 152 149 151 398 399 400 401 467 468 -158 160 159 147 144 178 527 528 526 529 -164 165 166 162 841 845 844 842 843 496 495 -201 450 448 449 433 429 430 431 428 432 434 244 243 242 241 498 499 -203 204 200 202 199 466 465 205 206 208 207 -211 209 212 210 213 857 40 36 39 38 37 328 327 330 329 331 719 718 720 -219 217 215 216 218 214 168 169 167 170 171 172 173 848 849 463 -222 223 221 220 34 31 35 33 32 900 899 806 805 808 754 758 756 -225 227 224 226 228 613 611 610 615 612 608 614 609 676 677 675 674 678 -269 268 625 689 687 688 622 627 628 623 626 624 10 8 593 592 -289 286 290 287 288 840 837 836 838 839 835 -298 301 299 300 302 856 855 690 693 691 692 694 274 272 271 273 833 834 -305 304 308 645 647 644 646 643 642 747 746 -307 306 303 734 733 732 735 731 441 438 439 -310 311 313 314 312 309 879 880 881 850 852 853 851 -318 315 317 316 745 744 743 -323 320 319 324 322 321 574 573 571 572 568 570 565 423 426 427 424 425 -371 370 367 369 368 740 741 742 486 483 485 -375 374 539 507 509 508 653 656 654 655 652 657 412 410 413 411 -378 377 376 174 176 175 470 404 403 402 405 -383 379 381 384 380 382 123 124 586 587 588 -394 393 396 397 395 760 761 762 763 764 759 503 501 502 504 440 -415 416 417 414 365 364 363 366 139 138 135 885 -452 22 21 23 12 13 14 788 787 786 783 785 784 782 599 -457 461 462 460 458 459 57 58 56 60 59 595 594 -464 266 264 261 265 260 263 262 544 542 541 543 545 591 590 589 469 471 -488 490 489 487 491 868 870 869 115 113 114 112 886 -493 349 350 348 351 142 143 141 140 812 816 814 815 810 811 813 585 582 -512 510 511 477 476 472 475 473 474 777 776 779 778 781 780 516 518 517 666 665 663 667 662 664 -560 559 558 481 478 480 482 479 800 801 798 802 -564 895 898 896 894 897 453 451 454 455 456 442 445 447 728 730 727 -566 567 569 680 681 685 684 683 682 686 679 725 722 721 723 726 724 -576 577 580 575 578 579 505 506 637 641 639 -583 584 581 670 672 671 673 669 668 -603 601 602 249 245 250 248 246 247 854 -607 606 605 604 525 524 326 325 443 444 446 729 -633 276 278 275 277 514 513 803 809 804 807 -635 634 636 69 71 70 61 62 251 254 252 253 860 858 859 861 -660 661 659 658 16 15 17 18 893 892 -703 702 51 48 49 50 47 52 233 231 229 232 230 515 891 890 -752 750 751 749 748 791 792 789 790 821 820 -772 157 154 155 156 240 500 497 823 822 825 824 0 





OBJ=
5717.477
BEST_KNOWN=
0.000